c uprop, v00.0, 
c reading from data/prog208.c.cnf
c done reading: 0.002904
p cnf 185 879
-90 -111 0
-90 -107 0
90 107 111 0
-84 107 111 0
-84 -107 -111 0
84 107 -111 0
84 -107 111 0
90 -102 0
-100 -102 0
-90 100 102 0
-90 -95 100 0
90 -95 -100 0
90 95 100 0
-90 95 -100 0
-91 102 0
-88 -91 0
88 91 -102 0
-86 88 -102 0
-86 -88 102 0
86 88 102 0
86 -88 -102 0
-85 91 0
-82 -85 0
82 85 -91 0
82 -91 -109 0
-82 91 -109 0
82 91 109 0
-82 -91 109 0
85 -113 0
-104 -113 0
-85 104 113 0
-85 104 -114 0
85 -104 -114 0
85 104 114 0
-85 -104 114 0
113 -115 0
-97 -115 0
97 -113 115 0
97 -113 -116 0
-97 113 -116 0
97 113 116 0
-97 -113 116 0
115 -117 0
-93 -117 0
93 -115 117 0
93 -115 -118 0
-93 115 -118 0
93 115 118 0
-93 -115 118 0
107 -119 0
111 -119 0
-107 -111 119 0
-107 -111 -120 0
107 111 -120 0
-107 111 120 0
107 -111 120 0
-100 -107 121 0
-100 -119 121 0
-107 -119 121 0
100 107 -121 0
100 119 -121 0
107 119 -121 0
100 -121 -122 0
107 -121 -122 0
119 -121 -122 0
-100 121 122 0
-107 121 122 0
-119 121 122 0
-100 -107 -119 122 0
100 107 119 -122 0
-88 -100 123 0
-88 -121 123 0
-100 -121 123 0
88 100 -123 0
88 121 -123 0
100 121 -123 0
88 -123 -124 0
100 -123 -124 0
121 -123 -124 0
-88 123 124 0
-100 123 124 0
-121 123 124 0
-88 -100 -121 124 0
88 100 121 -124 0
-82 -88 125 0
-82 -123 125 0
-88 -123 125 0
82 88 -125 0
82 123 -125 0
88 123 -125 0
-80 82 -125 0
-80 88 -125 0
-80 123 -125 0
80 -82 125 0
80 -88 125 0
80 -123 125 0
80 -82 -88 -123 0
-80 82 88 123 0
79 -82 -104 0
79 -104 -125 0
79 -82 -125 0
-79 82 104 0
-79 104 125 0
-79 82 125 0
-78 -79 104 0
-78 -79 82 0
-78 -79 125 0
78 79 -104 0
78 79 -82 0
78 79 -125 0
78 -82 -104 -125 0
-78 82 104 125 0
77 -97 -104 0
77 -79 -97 0
77 -79 -104 0
-77 97 104 0
-77 79 97 0
-77 79 104 0
-76 -77 97 0
-76 -77 104 0
-76 -77 79 0
76 77 -97 0
76 77 -104 0
76 77 -79 0
76 -79 -97 -104 0
-76 79 97 104 0
75 -93 -97 0
75 -77 -93 0
75 -77 -97 0
-75 93 97 0
-75 77 93 0
-75 77 97 0
-75 93 -110 0
-75 97 -110 0
-75 77 -110 0
75 -93 110 0
75 -97 110 0
75 -77 110 0
-77 -93 -97 110 0
77 93 97 -110 0
93 -106 0
75 -106 0
-75 -93 106 0
-75 -93 -99 0
75 93 -99 0
75 -93 99 0
-75 93 99 0
-87 124 0
-87 111 0
87 -111 -124 0
-81 -111 -124 0
-81 111 124 0
81 111 -124 0
81 -111 124 0
-80 103 -107 0
-80 -87 103 0
-87 103 -107 0
80 -103 107 0
80 87 -103 0
87 -103 107 0
80 -96 -103 0
-96 -103 107 0
87 -96 -103 0
-80 96 103 0
96 103 -107 0
-87 96 103 0
-80 -87 96 -107 0
80 87 -96 107 0
-78 92 -100 0
-78 92 -103 0
92 -100 -103 0
78 -92 100 0
78 -92 103 0
-92 100 103 0
-74 78 -92 0
-74 -92 100 0
-74 -92 103 0
74 -78 92 0
74 92 -100 0
74 92 -103 0
74 -78 -100 -103 0
-74 78 100 103 0
73 -76 -88 0
73 -76 -92 0
73 -88 -92 0
-73 76 88 0
-73 76 92 0
-73 88 92 0
-72 -73 76 0
-72 -73 88 0
-72 -73 92 0
72 73 -76 0
72 73 -88 0
72 73 -92 0
72 -76 -88 -92 0
-72 76 88 92 0
71 -82 -110 0
71 -73 -110 0
71 -73 -82 0
-71 82 110 0
-71 73 110 0
-71 73 82 0
-70 -71 110 0
-70 -71 82 0
-70 -71 73 0
70 71 -110 0
70 71 -82 0
70 71 -73 0
70 -73 -82 -110 0
-70 73 82 110 0
69 -99 -104 0
69 -71 -99 0
69 -71 -104 0
-69 99 104 0
-69 71 99 0
-69 71 104 0
-68 -69 99 0
-68 -69 104 0
-68 -69 71 0
68 69 -99 0
68 69 -104 0
68 69 -71 0
68 -71 -99 -104 0
-68 71 99 104 0
67 -97 -106 0
67 -69 -106 0
67 -69 -97 0
-67 97 106 0
-67 69 106 0
-67 69 97 0
-66 -67 106 0
-66 -67 97 0
-66 -67 69 0
66 67 -106 0
66 67 -97 0
66 67 -69 0
66 -69 -97 -106 0
-66 69 97 106 0
-65 93 0
-65 67 0
65 -67 -93 0
-64 -67 -93 0
-64 67 93 0
64 67 -93 0
64 -67 93 0
-63 -111 0
-63 -120 0
63 111 120 0
-62 111 120 0
-62 -111 -120 0
62 -111 120 0
62 111 -120 0
-61 63 0
-61 -122 0
61 -63 122 0
-60 -63 122 0
-60 63 -122 0
60 63 122 0
60 -63 -122 0
-59 61 0
-59 -81 0
59 -61 81 0
-61 81 -126 0
61 -81 -126 0
61 81 126 0
-61 -81 126 0
59 -127 0
-96 -127 0
-59 96 127 0
-59 96 -128 0
59 -96 -128 0
59 96 128 0
-59 -96 128 0
127 -129 0
-74 -129 0
74 -127 129 0
74 -127 -130 0
-74 127 -130 0
74 127 130 0
-74 -127 130 0
129 -131 0
-72 -131 0
72 -129 131 0
72 -129 -132 0
-72 129 -132 0
72 129 132 0
-72 -129 132 0
131 -133 0
-70 -133 0
70 -131 133 0
70 -131 -134 0
-70 131 -134 0
70 131 134 0
-70 -131 134 0
133 -135 0
-68 -135 0
68 -133 135 0
68 -133 -136 0
-68 133 -136 0
68 133 136 0
-68 -133 136 0
135 -137 0
-66 -137 0
66 -135 137 0
66 -135 -138 0
-66 135 -138 0
66 135 138 0
-66 -135 138 0
137 -139 0
-64 -139 0
64 -137 139 0
64 -137 -140 0
-64 137 -140 0
64 137 140 0
-64 -137 140 0
139 -141 0
-65 -141 0
65 -139 141 0
65 -139 -142 0
-65 139 -142 0
65 139 142 0
-65 -139 142 0
-143 -145 0
-145 -146 0
143 145 146 0
143 146 -148 0
-143 -146 -148 0
-143 146 148 0
143 -146 148 0
145 -149 0
-149 -150 0
-145 149 150 0
-145 150 -152 0
145 -150 -152 0
145 150 152 0
-145 -150 152 0
149 -153 0
-153 -154 0
-149 153 154 0
-149 154 -156 0
149 -154 -156 0
149 154 156 0
-149 -154 156 0
153 -157 0
-157 -158 0
-153 157 158 0
-153 158 -160 0
153 -158 -160 0
153 158 160 0
-153 -158 160 0
157 -161 0
-161 -162 0
-157 161 162 0
-157 162 -164 0
157 -162 -164 0
157 162 164 0
-157 -162 164 0
161 -165 0
-165 -166 0
-161 165 166 0
-161 166 -168 0
161 -166 -168 0
161 166 168 0
-161 -166 168 0
165 -169 0
-169 -170 0
-165 169 170 0
-165 170 -172 0
165 -170 -172 0
165 170 172 0
-165 -170 172 0
146 -173 0
143 -173 0
-143 -146 173 0
-143 -146 -174 0
143 146 -174 0
143 -146 174 0
-143 146 174 0
-146 -150 175 0
-150 -173 175 0
-146 -173 175 0
146 150 -175 0
150 173 -175 0
146 173 -175 0
150 -175 -176 0
146 -175 -176 0
173 -175 -176 0
-150 175 176 0
-146 175 176 0
-173 175 176 0
-146 -150 -173 176 0
146 150 173 -176 0
-150 -154 177 0
-154 -175 177 0
-150 -175 177 0
150 154 -177 0
154 175 -177 0
150 175 -177 0
154 -177 -178 0
150 -177 -178 0
175 -177 -178 0
-154 177 178 0
-150 177 178 0
-175 177 178 0
-150 -154 -175 178 0
150 154 175 -178 0
-154 -158 179 0
-158 -177 179 0
-154 -177 179 0
154 158 -179 0
158 177 -179 0
154 177 -179 0
158 -179 -180 0
154 -179 -180 0
177 -179 -180 0
-158 179 180 0
-154 179 180 0
-177 179 180 0
-154 -158 -177 180 0
154 158 177 -180 0
-158 -162 181 0
-162 -179 181 0
-158 -179 181 0
158 162 -181 0
162 179 -181 0
158 179 -181 0
162 -181 -182 0
158 -181 -182 0
179 -181 -182 0
-162 181 182 0
-158 181 182 0
-179 181 182 0
-158 -162 -179 182 0
158 162 179 -182 0
-162 -166 183 0
-166 -181 183 0
-162 -181 183 0
162 166 -183 0
166 181 -183 0
162 181 -183 0
166 -183 -184 0
162 -183 -184 0
181 -183 -184 0
-166 183 184 0
-162 183 184 0
-181 183 184 0
-162 -166 -181 184 0
162 166 181 -184 0
-166 -170 185 0
-170 -183 185 0
-166 -183 185 0
166 170 -185 0
170 183 -185 0
166 183 -185 0
-112 170 -185 0
-112 166 -185 0
-112 183 -185 0
112 -170 185 0
112 -166 185 0
112 -183 185 0
112 -166 -170 -183 0
-112 166 170 183 0
-108 170 0
-108 185 0
108 -170 -185 0
-101 -170 -185 0
-101 170 185 0
101 -170 185 0
101 170 -185 0
-89 176 0
-89 143 0
89 -143 -176 0
-83 -143 -176 0
-83 143 176 0
83 143 -176 0
83 -143 176 0
105 -146 -178 0
-89 105 -178 0
-89 105 -146 0
-105 146 178 0
89 -105 178 0
89 -105 146 0
-98 -105 178 0
-98 -105 146 0
89 -98 -105 0
98 105 -178 0
98 105 -146 0
-89 98 105 0
-89 98 -146 -178 0
89 -98 146 178 0
94 -150 -180 0
94 -105 -180 0
94 -105 -150 0
-94 150 180 0
-94 105 180 0
-94 105 150 0
-94 -144 180 0
-94 -144 150 0
-94 105 -144 0
94 144 -180 0
94 144 -150 0
94 -105 144 0
-105 144 -150 -180 0
105 -144 150 180 0
147 -154 -182 0
-94 147 -182 0
-94 147 -154 0
-147 154 182 0
94 -147 182 0
94 -147 154 0
-147 -151 182 0
-147 -151 154 0
94 -147 -151 0
147 151 -182 0
147 151 -154 0
-94 147 151 0
-94 151 -154 -182 0
94 -151 154 182 0
155 -158 -184 0
-147 155 -184 0
-147 155 -158 0
-155 158 184 0
147 -155 184 0
147 -155 158 0
-155 -159 184 0
-155 158 -159 0
147 -155 -159 0
155 159 -184 0
155 -158 159 0
-147 155 159 0
-147 -158 159 -184 0
147 158 -159 184 0
-112 -162 163 0
-112 -155 163 0
-155 -162 163 0
112 162 -163 0
112 155 -163 0
155 162 -163 0
112 -163 -167 0
162 -163 -167 0
155 -163 -167 0
-112 163 167 0
-162 163 167 0
-155 163 167 0
-112 -155 -162 167 0
112 155 162 -167 0
-101 -166 171 0
-101 -163 171 0
-163 -166 171 0
101 166 -171 0
101 163 -171 0
163 166 -171 0
-58 101 -171 0
-58 166 -171 0
-58 163 -171 0
58 -101 171 0
58 -166 171 0
58 -163 171 0
58 -101 -163 -166 0
-58 101 163 166 0
57 -108 -170 0
57 -108 -171 0
57 -170 -171 0
-57 108 170 0
-57 108 171 0
-57 170 171 0
-56 -57 108 0
-56 -57 170 0
-56 -57 171 0
56 57 -108 0
56 57 -170 0
56 57 -171 0
56 -108 -170 -171 0
-56 108 170 171 0
-55 151 0
-55 143 0
55 -143 -151 0
-54 -143 -151 0
-54 143 151 0
54 143 -151 0
54 -143 151 0
53 -146 -159 0
53 -55 -159 0
53 -55 -146 0
-53 146 159 0
-53 55 159 0
-53 55 146 0
-52 -53 159 0
-52 -53 146 0
-52 -53 55 0
52 53 -159 0
52 53 -146 0
52 53 -55 0
52 -55 -146 -159 0
-52 55 146 159 0
51 -150 -167 0
51 -53 -167 0
51 -53 -150 0
-51 150 167 0
-51 53 167 0
-51 53 150 0
-50 -51 167 0
-50 -51 150 0
-50 -51 53 0
50 51 -167 0
50 51 -150 0
50 51 -53 0
50 -53 -150 -167 0
-50 53 150 167 0
49 -58 -154 0
49 -51 -58 0
49 -51 -154 0
-49 58 154 0
-49 51 58 0
-49 51 154 0
-48 -49 58 0
-48 -49 154 0
-48 -49 51 0
48 49 -58 0
48 49 -154 0
48 49 -51 0
48 -51 -58 -154 0
-48 51 58 154 0
47 -56 -158 0
47 -49 -56 0
47 -49 -158 0
-47 56 158 0
-47 49 56 0
-47 49 158 0
-46 -47 56 0
-46 -47 158 0
-46 -47 49 0
46 47 -56 0
46 47 -158 0
46 47 -49 0
46 -49 -56 -158 0
-46 49 56 158 0
45 -57 -162 0
45 -47 -57 0
45 -47 -162 0
-45 57 162 0
-45 47 57 0
-45 47 162 0
-44 -45 57 0
-44 -45 162 0
-44 -45 47 0
44 45 -57 0
44 45 -162 0
44 45 -47 0
44 -47 -57 -162 0
-44 47 57 162 0
-43 166 0
-43 45 0
43 -45 -166 0
-42 -45 -166 0
-42 45 166 0
42 45 -166 0
42 -45 166 0
-41 170 0
-41 43 0
41 -43 -170 0
-40 -43 -170 0
-40 43 170 0
40 43 -170 0
40 -43 170 0
-39 -143 0
-39 -174 0
39 143 174 0
-38 143 174 0
-38 -143 -174 0
38 -143 174 0
38 143 -174 0
-37 39 0
-37 -83 0
37 -39 83 0
-36 -39 83 0
-36 39 -83 0
36 39 83 0
36 -39 -83 0
-35 37 0
-35 -98 0
35 -37 98 0
-34 -37 98 0
-34 37 -98 0
34 37 98 0
34 -37 -98 0
-33 35 0
-33 -144 0
33 -35 144 0
-32 -35 144 0
-32 35 -144 0
32 35 144 0
32 -35 -144 0
-31 33 0
-31 -54 0
31 -33 54 0
-30 -33 54 0
-30 33 -54 0
30 33 54 0
30 -33 -54 0
-29 31 0
-29 -52 0
29 -31 52 0
-28 -31 52 0
-28 31 -52 0
28 31 52 0
28 -31 -52 0
-27 29 0
-27 -50 0
27 -29 50 0
-26 -29 50 0
-26 29 -50 0
26 29 50 0
26 -29 -50 0
-25 27 0
-25 -48 0
25 -27 48 0
-24 -27 48 0
-24 27 -48 0
24 27 48 0
24 -27 -48 0
-23 25 0
-23 -46 0
23 -25 46 0
-22 -25 46 0
-22 25 -46 0
22 25 46 0
22 -25 -46 0
-21 23 0
-21 -44 0
21 -23 44 0
-20 -23 44 0
-20 23 -44 0
20 23 44 0
20 -23 -44 0
-19 21 0
-19 -42 0
19 -21 42 0
-18 -21 42 0
-18 21 -42 0
18 21 42 0
18 -21 -42 0
-17 19 0
-17 -40 0
17 -19 40 0
-16 -19 40 0
-16 19 -40 0
16 19 40 0
16 -19 -40 0
-15 17 0
-15 -41 0
15 -17 41 0
-14 -17 41 0
-14 17 -41 0
14 17 41 0
14 -17 -41 0
-13 111 0
-13 143 0
13 -111 -143 0
-111 -143 0
111 143 0
12 -120 -174 0
12 -13 -120 0
12 -13 -174 0
-12 120 174 0
-12 13 120 0
-12 13 174 0
12 -120 0
12 -174 0
12 -13 0
-13 -120 -174 0
11 -83 -122 0
11 -12 -122 0
11 -12 -83 0
-11 83 122 0
-11 12 122 0
-11 12 83 0
11 -122 0
11 -83 0
11 -12 0
-12 -83 -122 0
10 -81 -98 0
10 -11 -81 0
10 -11 -98 0
-10 81 98 0
-10 11 81 0
-10 11 98 0
-10 81 0
-10 98 0
-10 11 0
11 81 98 0
9 -96 -144 0
9 -10 -96 0
9 -10 -144 0
-9 96 144 0
-9 10 96 0
-9 10 144 0
-9 96 0
-9 144 0
-9 10 0
10 96 144 0
8 -54 -74 0
8 -9 -74 0
8 -9 -54 0
-8 54 74 0
-8 9 74 0
-8 9 54 0
-8 74 0
-8 54 0
-8 9 0
9 54 74 0
7 -52 -72 0
7 -8 -72 0
7 -8 -52 0
-7 52 72 0
-7 8 72 0
-7 8 52 0
7 -72 0
7 -52 0
7 -8 0
-8 -52 -72 0
6 -50 -70 0
6 -7 -70 0
6 -7 -50 0
-6 50 70 0
-6 7 70 0
-6 7 50 0
-6 70 0
-6 50 0
-6 7 0
7 50 70 0
5 -48 -68 0
5 -6 -68 0
5 -6 -48 0
-5 48 68 0
-5 6 68 0
-5 6 48 0
5 -68 0
5 -48 0
5 -6 0
-6 -48 -68 0
4 -46 -66 0
4 -5 -66 0
4 -5 -46 0
-4 46 66 0
-4 5 66 0
-4 5 46 0
4 -66 0
4 -46 0
4 -5 0
-5 -46 -66 0
3 -44 -64 0
3 -4 -64 0
3 -4 -44 0
-3 44 64 0
-3 4 64 0
-3 4 44 0
3 -64 0
3 -44 0
3 -4 0
-4 -44 -64 0
2 -42 -65 0
2 -3 -65 0
2 -3 -42 0
-2 42 65 0
-2 3 65 0
-2 3 42 0
2 -65 0
2 -42 0
2 -3 0
-3 -42 -65 0
-1 40 0
-1 2 0
1 -2 -40 0
2 -40 0
-2 40 0
-1 -41 0
1 -41 0
-1 41 0
